p cnf 39 169
-33 0
-35 0
-37 0
-33 0
-35 0
-37 0
-39 0
1 2 0
-2 -1 0
1 2 0
-2 -1 0
3 4 0
-4 -3 0
3 4 0
-4 -3 0
5 6 0
-6 -5 0
5 6 0
-6 -5 0
7 8 0
-8 -7 0
7 8 0
-8 -7 0
9 10 0
-10 -9 0
9 10 0
-10 -9 0
11 12 0
-12 -11 0
11 12 0
-12 -11 0
13 14 0
-14 -13 0
13 14 0
-14 -13 0
15 16 0
-16 -15 0
15 16 0
-16 -15 0
17 18 0
-18 -17 0
17 18 0
-18 -17 0
19 20 0
-20 -19 0
19 20 0
-20 -19 0
21 22 0
-22 -21 0
21 22 0
-22 -21 0
23 24 0
-24 -23 0
23 24 0
-24 -23 0
25 26 0
-26 -25 0
25 26 0
-26 -25 0
27 28 0
-28 -27 0
27 28 0
-28 -27 0
29 30 0
-30 -29 0
29 30 0
-30 -29 0
31 32 0
-32 -31 0
31 32 0
-32 -31 0
33 34 0
-34 -33 0
33 34 0
-34 -33 0
35 36 0
-36 -35 0
35 36 0
-36 -35 0
37 38 0
-38 -37 0
37 38 0
-38 -37 0
-31 -27 0
-29 -23 0
-25 -21 0
-31 -25 -23 0
-29 -27 -21 0
1 3 5 7 0
-3 -1 0
-5 -1 0
-7 -1 0
-5 -3 0
-7 -3 0
-7 -5 0
5 13 23 27 0
-27 -23 0
-23 -13 0
-23 -5 0
-27 -13 0
-27 -5 0
-13 -5 0
5 19 29 31 0
-31 -29 0
-29 -19 0
-29 -5 0
-31 -19 0
-31 -5 0
-19 -5 0
3 11 21 31 0
-31 -21 0
-21 -11 0
-21 -3 0
-31 -11 0
-31 -3 0
-11 -3 0
3 17 25 27 0
-27 -25 0
-25 -17 0
-25 -3 0
-27 -17 0
-27 -3 0
-17 -3 0
1 9 25 29 0
-29 -25 0
-25 -9 0
-25 -1 0
-29 -9 0
-29 -1 0
-9 -1 0
1 15 21 23 0
-23 -21 0
-21 -15 0
-21 -1 0
-23 -15 0
-23 -1 0
-15 -1 0
-1 1 0
-3 3 0
-5 5 0
-7 7 0
-9 9 0
-11 11 0
-13 13 0
-15 15 0
-17 17 0
-19 19 0
-21 21 0
-23 23 0
-25 25 0
-27 27 0
-29 29 0
-31 31 0
-21 21 0
-23 23 0
-25 25 0
-27 27 0
-29 29 0
-31 31 0
-1 1 0
-3 3 0
-5 5 0
-7 7 0
-9 9 0
-11 11 0
-13 13 0
-15 15 0
-17 17 0
-19 19 0
